; Benchmark for LTL-sketching problem
(set-logic QF_UF)
(set-info :status unknown)
(declare-fun z_1_0_0 () Bool)
(declare-fun z_0_0_0 () Bool)
(declare-fun x_0_! () Bool)
(declare-fun z_1_0_1 () Bool)
(declare-fun x_0_X () Bool)
(declare-fun x_0_F () Bool)
(declare-fun x_0_G () Bool)
(declare-fun z_0_0_1 () Bool)
(declare-fun z_1_1_0 () Bool)
(declare-fun z_0_1_0 () Bool)
(declare-fun z_1_1_1 () Bool)
(declare-fun z_1_1_6 () Bool)
(declare-fun z_1_1_5 () Bool)
(declare-fun z_1_1_4 () Bool)
(declare-fun z_1_1_3 () Bool)
(declare-fun z_1_1_2 () Bool)
(declare-fun z_0_1_1 () Bool)
(declare-fun z_0_1_2 () Bool)
(declare-fun z_0_1_3 () Bool)
(declare-fun z_0_1_4 () Bool)
(declare-fun z_0_1_5 () Bool)
(declare-fun z_0_1_6 () Bool)
(declare-fun z_1_2_0 () Bool)
(declare-fun z_0_2_0 () Bool)
(declare-fun z_1_2_1 () Bool)
(declare-fun z_1_2_6 () Bool)
(declare-fun z_1_2_5 () Bool)
(declare-fun z_1_2_4 () Bool)
(declare-fun z_1_2_3 () Bool)
(declare-fun z_1_2_2 () Bool)
(declare-fun z_0_2_1 () Bool)
(declare-fun z_0_2_2 () Bool)
(declare-fun z_0_2_3 () Bool)
(declare-fun z_0_2_4 () Bool)
(declare-fun z_0_2_5 () Bool)
(declare-fun z_0_2_6 () Bool)
(declare-fun z_1_3_0 () Bool)
(declare-fun z_0_3_0 () Bool)
(declare-fun z_1_3_1 () Bool)
(declare-fun z_1_3_2 () Bool)
(declare-fun z_0_3_1 () Bool)
(declare-fun z_0_3_2 () Bool)
(declare-fun z_1_4_0 () Bool)
(declare-fun z_0_4_0 () Bool)
(declare-fun z_1_4_1 () Bool)
(declare-fun z_1_4_4 () Bool)
(declare-fun z_1_4_3 () Bool)
(declare-fun z_1_4_2 () Bool)
(declare-fun z_0_4_1 () Bool)
(declare-fun z_0_4_2 () Bool)
(declare-fun z_0_4_3 () Bool)
(declare-fun z_0_4_4 () Bool)
(declare-fun z_1_5_0 () Bool)
(declare-fun z_0_5_0 () Bool)
(declare-fun z_1_5_1 () Bool)
(declare-fun z_1_5_5 () Bool)
(declare-fun z_1_5_4 () Bool)
(declare-fun z_1_5_3 () Bool)
(declare-fun z_1_5_2 () Bool)
(declare-fun z_0_5_1 () Bool)
(declare-fun z_0_5_2 () Bool)
(declare-fun z_0_5_3 () Bool)
(declare-fun z_0_5_4 () Bool)
(declare-fun z_0_5_5 () Bool)
(declare-fun z_1_6_0 () Bool)
(declare-fun z_0_6_0 () Bool)
(declare-fun z_1_6_1 () Bool)
(declare-fun z_1_6_4 () Bool)
(declare-fun z_1_6_3 () Bool)
(declare-fun z_1_6_2 () Bool)
(declare-fun z_0_6_1 () Bool)
(declare-fun z_0_6_2 () Bool)
(declare-fun z_0_6_3 () Bool)
(declare-fun z_0_6_4 () Bool)
(declare-fun z_1_7_0 () Bool)
(declare-fun z_0_7_0 () Bool)
(declare-fun z_1_7_1 () Bool)
(declare-fun z_1_7_4 () Bool)
(declare-fun z_1_7_3 () Bool)
(declare-fun z_1_7_2 () Bool)
(declare-fun z_0_7_1 () Bool)
(declare-fun z_0_7_2 () Bool)
(declare-fun z_0_7_3 () Bool)
(declare-fun z_0_7_4 () Bool)
(declare-fun z_1_8_0 () Bool)
(declare-fun z_0_8_0 () Bool)
(declare-fun z_1_8_1 () Bool)
(declare-fun z_1_8_6 () Bool)
(declare-fun z_1_8_5 () Bool)
(declare-fun z_1_8_4 () Bool)
(declare-fun z_1_8_3 () Bool)
(declare-fun z_1_8_2 () Bool)
(declare-fun z_0_8_1 () Bool)
(declare-fun z_0_8_2 () Bool)
(declare-fun z_0_8_3 () Bool)
(declare-fun z_0_8_4 () Bool)
(declare-fun z_0_8_5 () Bool)
(declare-fun z_0_8_6 () Bool)
(declare-fun z_1_9_0 () Bool)
(declare-fun z_0_9_0 () Bool)
(declare-fun z_1_9_1 () Bool)
(declare-fun z_1_9_4 () Bool)
(declare-fun z_1_9_3 () Bool)
(declare-fun z_1_9_2 () Bool)
(declare-fun z_0_9_1 () Bool)
(declare-fun z_0_9_2 () Bool)
(declare-fun z_0_9_3 () Bool)
(declare-fun z_0_9_4 () Bool)
(declare-fun z_1_10_0 () Bool)
(declare-fun z_0_10_0 () Bool)
(declare-fun z_1_11_0 () Bool)
(declare-fun z_0_11_0 () Bool)
(declare-fun z_1_12_0 () Bool)
(declare-fun z_0_12_0 () Bool)
(declare-fun z_1_13_0 () Bool)
(declare-fun z_0_13_0 () Bool)
(declare-fun z_1_14_0 () Bool)
(declare-fun z_0_14_0 () Bool)
(declare-fun z_1_15_0 () Bool)
(declare-fun z_0_15_0 () Bool)
(declare-fun z_1_16_0 () Bool)
(declare-fun z_0_16_0 () Bool)
(declare-fun z_1_17_0 () Bool)
(declare-fun z_0_17_0 () Bool)
(declare-fun z_1_18_0 () Bool)
(declare-fun z_0_18_0 () Bool)
(declare-fun z_1_19_0 () Bool)
(declare-fun z_0_19_0 () Bool)
(assert
 (=> x_0_! (= z_0_0_0 (not z_1_0_0))))
(assert
 (let (($x35 (= z_0_0_0 z_1_0_1)))
 (=> x_0_X $x35)))
(assert
 (let (($x40 (or z_1_0_0 z_1_0_1)))
 (let (($x41 (= z_0_0_0 $x40)))
 (=> x_0_F $x41))))
(assert
 (let (($x46 (and z_1_0_0 z_1_0_1)))
 (let (($x47 (= z_0_0_0 $x46)))
 (=> x_0_G $x47))))
(assert
 (=> x_0_! (= z_0_0_1 (not z_1_0_1))))
(assert
 (let (($x58 (= z_0_0_1 z_1_0_0)))
 (=> x_0_X $x58)))
(assert
 (let (($x40 (or z_1_0_0 z_1_0_1)))
 (let (($x61 (= z_0_0_1 $x40)))
 (=> x_0_F $x61))))
(assert
 (let (($x46 (and z_1_0_0 z_1_0_1)))
 (let (($x64 (= z_0_0_1 $x46)))
 (=> x_0_G $x64))))
(assert
 (=> x_0_! (= z_0_1_0 (not z_1_1_0))))
(assert
 (let (($x76 (= z_0_1_0 z_1_1_1)))
 (=> x_0_X $x76)))
(assert
 (let (($x84 (or z_1_1_0 z_1_1_1 z_1_1_2 z_1_1_3 z_1_1_4 z_1_1_5 z_1_1_6)))
 (let (($x85 (= z_0_1_0 $x84)))
 (=> x_0_F $x85))))
(assert
 (let (($x88 (and z_1_1_0 z_1_1_1 z_1_1_2 z_1_1_3 z_1_1_4 z_1_1_5 z_1_1_6)))
 (let (($x89 (= z_0_1_0 $x88)))
 (=> x_0_G $x89))))
(assert
 (=> x_0_! (= z_0_1_1 (not z_1_1_1))))
(assert
 (let (($x99 (= z_0_1_1 z_1_1_2)))
 (=> x_0_X $x99)))
(assert
 (let (($x103 (= z_0_1_1 (or z_1_1_1 z_1_1_2 z_1_1_3 z_1_1_4 z_1_1_5 z_1_1_6))))
 (=> x_0_F $x103)))
(assert
 (let (($x107 (= z_0_1_1 (and z_1_1_1 z_1_1_2 z_1_1_3 z_1_1_4 z_1_1_5 z_1_1_6))))
 (=> x_0_G $x107)))
(assert
 (=> x_0_! (= z_0_1_2 (not z_1_1_2))))
(assert
 (let (($x117 (= z_0_1_2 z_1_1_3)))
 (=> x_0_X $x117)))
(assert
 (let (($x121 (= z_0_1_2 (or z_1_1_2 z_1_1_3 z_1_1_4 z_1_1_5 z_1_1_6))))
 (=> x_0_F $x121)))
(assert
 (let (($x125 (= z_0_1_2 (and z_1_1_2 z_1_1_3 z_1_1_4 z_1_1_5 z_1_1_6))))
 (=> x_0_G $x125)))
(assert
 (=> x_0_! (= z_0_1_3 (not z_1_1_3))))
(assert
 (let (($x135 (= z_0_1_3 z_1_1_4)))
 (=> x_0_X $x135)))
(assert
 (let (($x138 (or z_1_1_3 z_1_1_4 z_1_1_5 z_1_1_6)))
 (let (($x139 (= z_0_1_3 $x138)))
 (=> x_0_F $x139))))
(assert
 (let (($x142 (and z_1_1_3 z_1_1_4 z_1_1_5 z_1_1_6)))
 (let (($x143 (= z_0_1_3 $x142)))
 (=> x_0_G $x143))))
(assert
 (=> x_0_! (= z_0_1_4 (not z_1_1_4))))
(assert
 (let (($x153 (= z_0_1_4 z_1_1_5)))
 (=> x_0_X $x153)))
(assert
 (let (($x138 (or z_1_1_3 z_1_1_4 z_1_1_5 z_1_1_6)))
 (let (($x156 (= z_0_1_4 $x138)))
 (=> x_0_F $x156))))
(assert
 (let (($x142 (and z_1_1_3 z_1_1_4 z_1_1_5 z_1_1_6)))
 (let (($x159 (= z_0_1_4 $x142)))
 (=> x_0_G $x159))))
(assert
 (=> x_0_! (= z_0_1_5 (not z_1_1_5))))
(assert
 (let (($x169 (= z_0_1_5 z_1_1_6)))
 (=> x_0_X $x169)))
(assert
 (let (($x138 (or z_1_1_3 z_1_1_4 z_1_1_5 z_1_1_6)))
 (let (($x172 (= z_0_1_5 $x138)))
 (=> x_0_F $x172))))
(assert
 (let (($x142 (and z_1_1_3 z_1_1_4 z_1_1_5 z_1_1_6)))
 (let (($x175 (= z_0_1_5 $x142)))
 (=> x_0_G $x175))))
(assert
 (=> x_0_! (= z_0_1_6 (not z_1_1_6))))
(assert
 (let (($x185 (= z_0_1_6 z_1_1_3)))
 (=> x_0_X $x185)))
(assert
 (let (($x138 (or z_1_1_3 z_1_1_4 z_1_1_5 z_1_1_6)))
 (let (($x188 (= z_0_1_6 $x138)))
 (=> x_0_F $x188))))
(assert
 (let (($x142 (and z_1_1_3 z_1_1_4 z_1_1_5 z_1_1_6)))
 (let (($x191 (= z_0_1_6 $x142)))
 (=> x_0_G $x191))))
(assert
 (=> x_0_! (= z_0_2_0 (not z_1_2_0))))
(assert
 (let (($x203 (= z_0_2_0 z_1_2_1)))
 (=> x_0_X $x203)))
(assert
 (let (($x211 (or z_1_2_0 z_1_2_1 z_1_2_2 z_1_2_3 z_1_2_4 z_1_2_5 z_1_2_6)))
 (let (($x212 (= z_0_2_0 $x211)))
 (=> x_0_F $x212))))
(assert
 (let (($x215 (and z_1_2_0 z_1_2_1 z_1_2_2 z_1_2_3 z_1_2_4 z_1_2_5 z_1_2_6)))
 (let (($x216 (= z_0_2_0 $x215)))
 (=> x_0_G $x216))))
(assert
 (=> x_0_! (= z_0_2_1 (not z_1_2_1))))
(assert
 (let (($x226 (= z_0_2_1 z_1_2_2)))
 (=> x_0_X $x226)))
(assert
 (let (($x230 (= z_0_2_1 (or z_1_2_1 z_1_2_2 z_1_2_3 z_1_2_4 z_1_2_5 z_1_2_6))))
 (=> x_0_F $x230)))
(assert
 (let (($x234 (= z_0_2_1 (and z_1_2_1 z_1_2_2 z_1_2_3 z_1_2_4 z_1_2_5 z_1_2_6))))
 (=> x_0_G $x234)))
(assert
 (=> x_0_! (= z_0_2_2 (not z_1_2_2))))
(assert
 (let (($x244 (= z_0_2_2 z_1_2_3)))
 (=> x_0_X $x244)))
(assert
 (let (($x248 (= z_0_2_2 (or z_1_2_2 z_1_2_3 z_1_2_4 z_1_2_5 z_1_2_6))))
 (=> x_0_F $x248)))
(assert
 (let (($x252 (= z_0_2_2 (and z_1_2_2 z_1_2_3 z_1_2_4 z_1_2_5 z_1_2_6))))
 (=> x_0_G $x252)))
(assert
 (=> x_0_! (= z_0_2_3 (not z_1_2_3))))
(assert
 (let (($x262 (= z_0_2_3 z_1_2_4)))
 (=> x_0_X $x262)))
(assert
 (let (($x265 (or z_1_2_3 z_1_2_4 z_1_2_5 z_1_2_6)))
 (let (($x266 (= z_0_2_3 $x265)))
 (=> x_0_F $x266))))
(assert
 (let (($x269 (and z_1_2_3 z_1_2_4 z_1_2_5 z_1_2_6)))
 (let (($x270 (= z_0_2_3 $x269)))
 (=> x_0_G $x270))))
(assert
 (=> x_0_! (= z_0_2_4 (not z_1_2_4))))
(assert
 (let (($x280 (= z_0_2_4 z_1_2_5)))
 (=> x_0_X $x280)))
(assert
 (let (($x265 (or z_1_2_3 z_1_2_4 z_1_2_5 z_1_2_6)))
 (let (($x283 (= z_0_2_4 $x265)))
 (=> x_0_F $x283))))
(assert
 (let (($x269 (and z_1_2_3 z_1_2_4 z_1_2_5 z_1_2_6)))
 (let (($x286 (= z_0_2_4 $x269)))
 (=> x_0_G $x286))))
(assert
 (=> x_0_! (= z_0_2_5 (not z_1_2_5))))
(assert
 (let (($x296 (= z_0_2_5 z_1_2_6)))
 (=> x_0_X $x296)))
(assert
 (let (($x265 (or z_1_2_3 z_1_2_4 z_1_2_5 z_1_2_6)))
 (let (($x299 (= z_0_2_5 $x265)))
 (=> x_0_F $x299))))
(assert
 (let (($x269 (and z_1_2_3 z_1_2_4 z_1_2_5 z_1_2_6)))
 (let (($x302 (= z_0_2_5 $x269)))
 (=> x_0_G $x302))))
(assert
 (=> x_0_! (= z_0_2_6 (not z_1_2_6))))
(assert
 (let (($x312 (= z_0_2_6 z_1_2_3)))
 (=> x_0_X $x312)))
(assert
 (let (($x265 (or z_1_2_3 z_1_2_4 z_1_2_5 z_1_2_6)))
 (let (($x315 (= z_0_2_6 $x265)))
 (=> x_0_F $x315))))
(assert
 (let (($x269 (and z_1_2_3 z_1_2_4 z_1_2_5 z_1_2_6)))
 (let (($x318 (= z_0_2_6 $x269)))
 (=> x_0_G $x318))))
(assert
 (=> x_0_! (= z_0_3_0 (not z_1_3_0))))
(assert
 (let (($x330 (= z_0_3_0 z_1_3_1)))
 (=> x_0_X $x330)))
(assert
 (let (($x335 (= z_0_3_0 (or z_1_3_0 z_1_3_1 z_1_3_2))))
 (=> x_0_F $x335)))
(assert
 (let (($x339 (= z_0_3_0 (and z_1_3_0 z_1_3_1 z_1_3_2))))
 (=> x_0_G $x339)))
(assert
 (=> x_0_! (= z_0_3_1 (not z_1_3_1))))
(assert
 (let (($x349 (= z_0_3_1 z_1_3_2)))
 (=> x_0_X $x349)))
(assert
 (let (($x353 (= z_0_3_1 (or z_1_3_1 z_1_3_2))))
 (=> x_0_F $x353)))
(assert
 (let (($x357 (= z_0_3_1 (and z_1_3_1 z_1_3_2))))
 (=> x_0_G $x357)))
(assert
 (=> x_0_! (= z_0_3_2 (not z_1_3_2))))
(assert
 (let (($x367 (= z_0_3_2 z_1_3_2)))
 (=> x_0_X $x367)))
(assert
 (=> x_0_F (= z_0_3_2 (or z_1_3_2))))
(assert
 (=> x_0_G (= z_0_3_2 (and z_1_3_2))))
(assert
 (=> x_0_! (= z_0_4_0 (not z_1_4_0))))
(assert
 (let (($x387 (= z_0_4_0 z_1_4_1)))
 (=> x_0_X $x387)))
(assert
 (let (($x394 (= z_0_4_0 (or z_1_4_0 z_1_4_1 z_1_4_2 z_1_4_3 z_1_4_4))))
 (=> x_0_F $x394)))
(assert
 (let (($x398 (= z_0_4_0 (and z_1_4_0 z_1_4_1 z_1_4_2 z_1_4_3 z_1_4_4))))
 (=> x_0_G $x398)))
(assert
 (=> x_0_! (= z_0_4_1 (not z_1_4_1))))
(assert
 (let (($x408 (= z_0_4_1 z_1_4_2)))
 (=> x_0_X $x408)))
(assert
 (let (($x412 (= z_0_4_1 (or z_1_4_1 z_1_4_2 z_1_4_3 z_1_4_4))))
 (=> x_0_F $x412)))
(assert
 (let (($x416 (= z_0_4_1 (and z_1_4_1 z_1_4_2 z_1_4_3 z_1_4_4))))
 (=> x_0_G $x416)))
(assert
 (=> x_0_! (= z_0_4_2 (not z_1_4_2))))
(assert
 (let (($x426 (= z_0_4_2 z_1_4_3)))
 (=> x_0_X $x426)))
(assert
 (let (($x429 (or z_1_4_2 z_1_4_3 z_1_4_4)))
 (let (($x430 (= z_0_4_2 $x429)))
 (=> x_0_F $x430))))
(assert
 (let (($x433 (and z_1_4_2 z_1_4_3 z_1_4_4)))
 (let (($x434 (= z_0_4_2 $x433)))
 (=> x_0_G $x434))))
(assert
 (=> x_0_! (= z_0_4_3 (not z_1_4_3))))
(assert
 (let (($x444 (= z_0_4_3 z_1_4_4)))
 (=> x_0_X $x444)))
(assert
 (let (($x429 (or z_1_4_2 z_1_4_3 z_1_4_4)))
 (let (($x447 (= z_0_4_3 $x429)))
 (=> x_0_F $x447))))
(assert
 (let (($x433 (and z_1_4_2 z_1_4_3 z_1_4_4)))
 (let (($x450 (= z_0_4_3 $x433)))
 (=> x_0_G $x450))))
(assert
 (=> x_0_! (= z_0_4_4 (not z_1_4_4))))
(assert
 (let (($x460 (= z_0_4_4 z_1_4_2)))
 (=> x_0_X $x460)))
(assert
 (let (($x429 (or z_1_4_2 z_1_4_3 z_1_4_4)))
 (let (($x463 (= z_0_4_4 $x429)))
 (=> x_0_F $x463))))
(assert
 (let (($x433 (and z_1_4_2 z_1_4_3 z_1_4_4)))
 (let (($x466 (= z_0_4_4 $x433)))
 (=> x_0_G $x466))))
(assert
 (=> x_0_! (= z_0_5_0 (not z_1_5_0))))
(assert
 (let (($x478 (= z_0_5_0 z_1_5_1)))
 (=> x_0_X $x478)))
(assert
 (let (($x486 (= z_0_5_0 (or z_1_5_0 z_1_5_1 z_1_5_2 z_1_5_3 z_1_5_4 z_1_5_5))))
 (=> x_0_F $x486)))
(assert
 (let (($x490 (= z_0_5_0 (and z_1_5_0 z_1_5_1 z_1_5_2 z_1_5_3 z_1_5_4 z_1_5_5))))
 (=> x_0_G $x490)))
(assert
 (=> x_0_! (= z_0_5_1 (not z_1_5_1))))
(assert
 (let (($x500 (= z_0_5_1 z_1_5_2)))
 (=> x_0_X $x500)))
(assert
 (let (($x504 (= z_0_5_1 (or z_1_5_1 z_1_5_2 z_1_5_3 z_1_5_4 z_1_5_5))))
 (=> x_0_F $x504)))
(assert
 (let (($x508 (= z_0_5_1 (and z_1_5_1 z_1_5_2 z_1_5_3 z_1_5_4 z_1_5_5))))
 (=> x_0_G $x508)))
(assert
 (=> x_0_! (= z_0_5_2 (not z_1_5_2))))
(assert
 (let (($x518 (= z_0_5_2 z_1_5_3)))
 (=> x_0_X $x518)))
(assert
 (let (($x522 (= z_0_5_2 (or z_1_5_2 z_1_5_3 z_1_5_4 z_1_5_5))))
 (=> x_0_F $x522)))
(assert
 (let (($x526 (= z_0_5_2 (and z_1_5_2 z_1_5_3 z_1_5_4 z_1_5_5))))
 (=> x_0_G $x526)))
(assert
 (=> x_0_! (= z_0_5_3 (not z_1_5_3))))
(assert
 (let (($x536 (= z_0_5_3 z_1_5_4)))
 (=> x_0_X $x536)))
(assert
 (let (($x540 (= z_0_5_3 (or z_1_5_3 z_1_5_4 z_1_5_5))))
 (=> x_0_F $x540)))
(assert
 (let (($x544 (= z_0_5_3 (and z_1_5_3 z_1_5_4 z_1_5_5))))
 (=> x_0_G $x544)))
(assert
 (=> x_0_! (= z_0_5_4 (not z_1_5_4))))
(assert
 (let (($x554 (= z_0_5_4 z_1_5_5)))
 (=> x_0_X $x554)))
(assert
 (let (($x557 (or z_1_5_4 z_1_5_5)))
 (let (($x558 (= z_0_5_4 $x557)))
 (=> x_0_F $x558))))
(assert
 (let (($x561 (and z_1_5_4 z_1_5_5)))
 (let (($x562 (= z_0_5_4 $x561)))
 (=> x_0_G $x562))))
(assert
 (=> x_0_! (= z_0_5_5 (not z_1_5_5))))
(assert
 (let (($x572 (= z_0_5_5 z_1_5_4)))
 (=> x_0_X $x572)))
(assert
 (let (($x557 (or z_1_5_4 z_1_5_5)))
 (let (($x575 (= z_0_5_5 $x557)))
 (=> x_0_F $x575))))
(assert
 (let (($x561 (and z_1_5_4 z_1_5_5)))
 (let (($x578 (= z_0_5_5 $x561)))
 (=> x_0_G $x578))))
(assert
 (=> x_0_! (= z_0_6_0 (not z_1_6_0))))
(assert
 (let (($x590 (= z_0_6_0 z_1_6_1)))
 (=> x_0_X $x590)))
(assert
 (let (($x597 (= z_0_6_0 (or z_1_6_0 z_1_6_1 z_1_6_2 z_1_6_3 z_1_6_4))))
 (=> x_0_F $x597)))
(assert
 (let (($x601 (= z_0_6_0 (and z_1_6_0 z_1_6_1 z_1_6_2 z_1_6_3 z_1_6_4))))
 (=> x_0_G $x601)))
(assert
 (=> x_0_! (= z_0_6_1 (not z_1_6_1))))
(assert
 (let (($x611 (= z_0_6_1 z_1_6_2)))
 (=> x_0_X $x611)))
(assert
 (let (($x614 (or z_1_6_1 z_1_6_2 z_1_6_3 z_1_6_4)))
 (let (($x615 (= z_0_6_1 $x614)))
 (=> x_0_F $x615))))
(assert
 (let (($x618 (and z_1_6_1 z_1_6_2 z_1_6_3 z_1_6_4)))
 (let (($x619 (= z_0_6_1 $x618)))
 (=> x_0_G $x619))))
(assert
 (=> x_0_! (= z_0_6_2 (not z_1_6_2))))
(assert
 (let (($x629 (= z_0_6_2 z_1_6_3)))
 (=> x_0_X $x629)))
(assert
 (let (($x614 (or z_1_6_1 z_1_6_2 z_1_6_3 z_1_6_4)))
 (let (($x632 (= z_0_6_2 $x614)))
 (=> x_0_F $x632))))
(assert
 (let (($x618 (and z_1_6_1 z_1_6_2 z_1_6_3 z_1_6_4)))
 (let (($x635 (= z_0_6_2 $x618)))
 (=> x_0_G $x635))))
(assert
 (=> x_0_! (= z_0_6_3 (not z_1_6_3))))
(assert
 (let (($x645 (= z_0_6_3 z_1_6_4)))
 (=> x_0_X $x645)))
(assert
 (let (($x614 (or z_1_6_1 z_1_6_2 z_1_6_3 z_1_6_4)))
 (let (($x648 (= z_0_6_3 $x614)))
 (=> x_0_F $x648))))
(assert
 (let (($x618 (and z_1_6_1 z_1_6_2 z_1_6_3 z_1_6_4)))
 (let (($x651 (= z_0_6_3 $x618)))
 (=> x_0_G $x651))))
(assert
 (=> x_0_! (= z_0_6_4 (not z_1_6_4))))
(assert
 (let (($x661 (= z_0_6_4 z_1_6_1)))
 (=> x_0_X $x661)))
(assert
 (let (($x614 (or z_1_6_1 z_1_6_2 z_1_6_3 z_1_6_4)))
 (let (($x664 (= z_0_6_4 $x614)))
 (=> x_0_F $x664))))
(assert
 (let (($x618 (and z_1_6_1 z_1_6_2 z_1_6_3 z_1_6_4)))
 (let (($x667 (= z_0_6_4 $x618)))
 (=> x_0_G $x667))))
(assert
 (=> x_0_! (= z_0_7_0 (not z_1_7_0))))
(assert
 (let (($x679 (= z_0_7_0 z_1_7_1)))
 (=> x_0_X $x679)))
(assert
 (let (($x686 (= z_0_7_0 (or z_1_7_0 z_1_7_1 z_1_7_2 z_1_7_3 z_1_7_4))))
 (=> x_0_F $x686)))
(assert
 (let (($x690 (= z_0_7_0 (and z_1_7_0 z_1_7_1 z_1_7_2 z_1_7_3 z_1_7_4))))
 (=> x_0_G $x690)))
(assert
 (=> x_0_! (= z_0_7_1 (not z_1_7_1))))
(assert
 (let (($x700 (= z_0_7_1 z_1_7_2)))
 (=> x_0_X $x700)))
(assert
 (let (($x704 (= z_0_7_1 (or z_1_7_1 z_1_7_2 z_1_7_3 z_1_7_4))))
 (=> x_0_F $x704)))
(assert
 (let (($x708 (= z_0_7_1 (and z_1_7_1 z_1_7_2 z_1_7_3 z_1_7_4))))
 (=> x_0_G $x708)))
(assert
 (=> x_0_! (= z_0_7_2 (not z_1_7_2))))
(assert
 (let (($x718 (= z_0_7_2 z_1_7_3)))
 (=> x_0_X $x718)))
(assert
 (let (($x721 (or z_1_7_2 z_1_7_3 z_1_7_4)))
 (let (($x722 (= z_0_7_2 $x721)))
 (=> x_0_F $x722))))
(assert
 (let (($x725 (and z_1_7_2 z_1_7_3 z_1_7_4)))
 (let (($x726 (= z_0_7_2 $x725)))
 (=> x_0_G $x726))))
(assert
 (=> x_0_! (= z_0_7_3 (not z_1_7_3))))
(assert
 (let (($x736 (= z_0_7_3 z_1_7_4)))
 (=> x_0_X $x736)))
(assert
 (let (($x721 (or z_1_7_2 z_1_7_3 z_1_7_4)))
 (let (($x739 (= z_0_7_3 $x721)))
 (=> x_0_F $x739))))
(assert
 (let (($x725 (and z_1_7_2 z_1_7_3 z_1_7_4)))
 (let (($x742 (= z_0_7_3 $x725)))
 (=> x_0_G $x742))))
(assert
 (=> x_0_! (= z_0_7_4 (not z_1_7_4))))
(assert
 (let (($x752 (= z_0_7_4 z_1_7_2)))
 (=> x_0_X $x752)))
(assert
 (let (($x721 (or z_1_7_2 z_1_7_3 z_1_7_4)))
 (let (($x755 (= z_0_7_4 $x721)))
 (=> x_0_F $x755))))
(assert
 (let (($x725 (and z_1_7_2 z_1_7_3 z_1_7_4)))
 (let (($x758 (= z_0_7_4 $x725)))
 (=> x_0_G $x758))))
(assert
 (=> x_0_! (= z_0_8_0 (not z_1_8_0))))
(assert
 (let (($x770 (= z_0_8_0 z_1_8_1)))
 (=> x_0_X $x770)))
(assert
 (let (($x778 (or z_1_8_0 z_1_8_1 z_1_8_2 z_1_8_3 z_1_8_4 z_1_8_5 z_1_8_6)))
 (let (($x779 (= z_0_8_0 $x778)))
 (=> x_0_F $x779))))
(assert
 (let (($x782 (and z_1_8_0 z_1_8_1 z_1_8_2 z_1_8_3 z_1_8_4 z_1_8_5 z_1_8_6)))
 (let (($x783 (= z_0_8_0 $x782)))
 (=> x_0_G $x783))))
(assert
 (=> x_0_! (= z_0_8_1 (not z_1_8_1))))
(assert
 (let (($x793 (= z_0_8_1 z_1_8_2)))
 (=> x_0_X $x793)))
(assert
 (let (($x797 (= z_0_8_1 (or z_1_8_1 z_1_8_2 z_1_8_3 z_1_8_4 z_1_8_5 z_1_8_6))))
 (=> x_0_F $x797)))
(assert
 (let (($x801 (= z_0_8_1 (and z_1_8_1 z_1_8_2 z_1_8_3 z_1_8_4 z_1_8_5 z_1_8_6))))
 (=> x_0_G $x801)))
(assert
 (=> x_0_! (= z_0_8_2 (not z_1_8_2))))
(assert
 (let (($x811 (= z_0_8_2 z_1_8_3)))
 (=> x_0_X $x811)))
(assert
 (let (($x815 (= z_0_8_2 (or z_1_8_2 z_1_8_3 z_1_8_4 z_1_8_5 z_1_8_6))))
 (=> x_0_F $x815)))
(assert
 (let (($x819 (= z_0_8_2 (and z_1_8_2 z_1_8_3 z_1_8_4 z_1_8_5 z_1_8_6))))
 (=> x_0_G $x819)))
(assert
 (=> x_0_! (= z_0_8_3 (not z_1_8_3))))
(assert
 (let (($x829 (= z_0_8_3 z_1_8_4)))
 (=> x_0_X $x829)))
(assert
 (let (($x833 (= z_0_8_3 (or z_1_8_3 z_1_8_4 z_1_8_5 z_1_8_6))))
 (=> x_0_F $x833)))
(assert
 (let (($x837 (= z_0_8_3 (and z_1_8_3 z_1_8_4 z_1_8_5 z_1_8_6))))
 (=> x_0_G $x837)))
(assert
 (=> x_0_! (= z_0_8_4 (not z_1_8_4))))
(assert
 (let (($x847 (= z_0_8_4 z_1_8_5)))
 (=> x_0_X $x847)))
(assert
 (let (($x850 (or z_1_8_4 z_1_8_5 z_1_8_6)))
 (let (($x851 (= z_0_8_4 $x850)))
 (=> x_0_F $x851))))
(assert
 (let (($x854 (and z_1_8_4 z_1_8_5 z_1_8_6)))
 (let (($x855 (= z_0_8_4 $x854)))
 (=> x_0_G $x855))))
(assert
 (=> x_0_! (= z_0_8_5 (not z_1_8_5))))
(assert
 (let (($x865 (= z_0_8_5 z_1_8_6)))
 (=> x_0_X $x865)))
(assert
 (let (($x850 (or z_1_8_4 z_1_8_5 z_1_8_6)))
 (let (($x868 (= z_0_8_5 $x850)))
 (=> x_0_F $x868))))
(assert
 (let (($x854 (and z_1_8_4 z_1_8_5 z_1_8_6)))
 (let (($x871 (= z_0_8_5 $x854)))
 (=> x_0_G $x871))))
(assert
 (=> x_0_! (= z_0_8_6 (not z_1_8_6))))
(assert
 (let (($x881 (= z_0_8_6 z_1_8_4)))
 (=> x_0_X $x881)))
(assert
 (let (($x850 (or z_1_8_4 z_1_8_5 z_1_8_6)))
 (let (($x884 (= z_0_8_6 $x850)))
 (=> x_0_F $x884))))
(assert
 (let (($x854 (and z_1_8_4 z_1_8_5 z_1_8_6)))
 (let (($x887 (= z_0_8_6 $x854)))
 (=> x_0_G $x887))))
(assert
 (=> x_0_! (= z_0_9_0 (not z_1_9_0))))
(assert
 (let (($x899 (= z_0_9_0 z_1_9_1)))
 (=> x_0_X $x899)))
(assert
 (let (($x906 (= z_0_9_0 (or z_1_9_0 z_1_9_1 z_1_9_2 z_1_9_3 z_1_9_4))))
 (=> x_0_F $x906)))
(assert
 (let (($x910 (= z_0_9_0 (and z_1_9_0 z_1_9_1 z_1_9_2 z_1_9_3 z_1_9_4))))
 (=> x_0_G $x910)))
(assert
 (=> x_0_! (= z_0_9_1 (not z_1_9_1))))
(assert
 (let (($x920 (= z_0_9_1 z_1_9_2)))
 (=> x_0_X $x920)))
(assert
 (let (($x924 (= z_0_9_1 (or z_1_9_1 z_1_9_2 z_1_9_3 z_1_9_4))))
 (=> x_0_F $x924)))
(assert
 (let (($x928 (= z_0_9_1 (and z_1_9_1 z_1_9_2 z_1_9_3 z_1_9_4))))
 (=> x_0_G $x928)))
(assert
 (=> x_0_! (= z_0_9_2 (not z_1_9_2))))
(assert
 (let (($x938 (= z_0_9_2 z_1_9_3)))
 (=> x_0_X $x938)))
(assert
 (let (($x942 (= z_0_9_2 (or z_1_9_2 z_1_9_3 z_1_9_4))))
 (=> x_0_F $x942)))
(assert
 (let (($x946 (= z_0_9_2 (and z_1_9_2 z_1_9_3 z_1_9_4))))
 (=> x_0_G $x946)))
(assert
 (=> x_0_! (= z_0_9_3 (not z_1_9_3))))
(assert
 (let (($x956 (= z_0_9_3 z_1_9_4)))
 (=> x_0_X $x956)))
(assert
 (let (($x959 (or z_1_9_3 z_1_9_4)))
 (let (($x960 (= z_0_9_3 $x959)))
 (=> x_0_F $x960))))
(assert
 (let (($x963 (and z_1_9_3 z_1_9_4)))
 (let (($x964 (= z_0_9_3 $x963)))
 (=> x_0_G $x964))))
(assert
 (=> x_0_! (= z_0_9_4 (not z_1_9_4))))
(assert
 (let (($x974 (= z_0_9_4 z_1_9_3)))
 (=> x_0_X $x974)))
(assert
 (let (($x959 (or z_1_9_3 z_1_9_4)))
 (let (($x977 (= z_0_9_4 $x959)))
 (=> x_0_F $x977))))
(assert
 (let (($x963 (and z_1_9_3 z_1_9_4)))
 (let (($x980 (= z_0_9_4 $x963)))
 (=> x_0_G $x980))))
(assert
 (=> x_0_! (= z_0_10_0 (not z_1_10_0))))
(assert
 (let (($x991 (= z_0_10_0 z_1_10_0)))
 (=> x_0_X $x991)))
(assert
 (=> x_0_F (= z_0_10_0 (or z_1_10_0))))
(assert
 (=> x_0_G (= z_0_10_0 (and z_1_10_0))))
(assert
 (=> x_0_! (= z_0_11_0 (not z_1_11_0))))
(assert
 (let (($x1010 (= z_0_11_0 z_1_11_0)))
 (=> x_0_X $x1010)))
(assert
 (=> x_0_F (= z_0_11_0 (or z_1_11_0))))
(assert
 (=> x_0_G (= z_0_11_0 (and z_1_11_0))))
(assert
 (=> x_0_! (= z_0_12_0 (not z_1_12_0))))
(assert
 (let (($x1029 (= z_0_12_0 z_1_12_0)))
 (=> x_0_X $x1029)))
(assert
 (=> x_0_F (= z_0_12_0 (or z_1_12_0))))
(assert
 (=> x_0_G (= z_0_12_0 (and z_1_12_0))))
(assert
 (=> x_0_! (= z_0_13_0 (not z_1_13_0))))
(assert
 (let (($x1048 (= z_0_13_0 z_1_13_0)))
 (=> x_0_X $x1048)))
(assert
 (=> x_0_F (= z_0_13_0 (or z_1_13_0))))
(assert
 (=> x_0_G (= z_0_13_0 (and z_1_13_0))))
(assert
 (=> x_0_! (= z_0_14_0 (not z_1_14_0))))
(assert
 (let (($x1067 (= z_0_14_0 z_1_14_0)))
 (=> x_0_X $x1067)))
(assert
 (=> x_0_F (= z_0_14_0 (or z_1_14_0))))
(assert
 (=> x_0_G (= z_0_14_0 (and z_1_14_0))))
(assert
 (=> x_0_! (= z_0_15_0 (not z_1_15_0))))
(assert
 (let (($x1086 (= z_0_15_0 z_1_15_0)))
 (=> x_0_X $x1086)))
(assert
 (=> x_0_F (= z_0_15_0 (or z_1_15_0))))
(assert
 (=> x_0_G (= z_0_15_0 (and z_1_15_0))))
(assert
 (=> x_0_! (= z_0_16_0 (not z_1_16_0))))
(assert
 (let (($x1105 (= z_0_16_0 z_1_16_0)))
 (=> x_0_X $x1105)))
(assert
 (=> x_0_F (= z_0_16_0 (or z_1_16_0))))
(assert
 (=> x_0_G (= z_0_16_0 (and z_1_16_0))))
(assert
 (=> x_0_! (= z_0_17_0 (not z_1_17_0))))
(assert
 (let (($x1124 (= z_0_17_0 z_1_17_0)))
 (=> x_0_X $x1124)))
(assert
 (=> x_0_F (= z_0_17_0 (or z_1_17_0))))
(assert
 (=> x_0_G (= z_0_17_0 (and z_1_17_0))))
(assert
 (=> x_0_! (= z_0_18_0 (not z_1_18_0))))
(assert
 (let (($x1143 (= z_0_18_0 z_1_18_0)))
 (=> x_0_X $x1143)))
(assert
 (=> x_0_F (= z_0_18_0 (or z_1_18_0))))
(assert
 (=> x_0_G (= z_0_18_0 (and z_1_18_0))))
(assert
 (=> x_0_! (= z_0_19_0 (not z_1_19_0))))
(assert
 (let (($x1162 (= z_0_19_0 z_1_19_0)))
 (=> x_0_X $x1162)))
(assert
 (=> x_0_F (= z_0_19_0 (or z_1_19_0))))
(assert
 (=> x_0_G (= z_0_19_0 (and z_1_19_0))))
(assert
 (or x_0_! x_0_X x_0_F x_0_G))
(assert
 (let (($x49 (not x_0_G)))
 (let (($x43 (not x_0_F)))
 (let (($x1179 (or $x43 $x49)))
 (let (($x37 (not x_0_X)))
 (let (($x1178 (or $x37 $x49)))
 (let (($x1177 (or $x37 $x43)))
 (let (($x31 (not x_0_!)))
 (let (($x1176 (or $x31 $x49)))
 (let (($x1175 (or $x31 $x43)))
 (let (($x1174 (or $x31 $x37)))
 (and $x1174 $x1175 $x1176 $x1177 $x1178 $x1179))))))))))))
(assert
 (= z_0_0_0 true))
(assert
 (= z_0_1_0 true))
(assert
 (= z_0_2_0 true))
(assert
 (= z_0_3_0 true))
(assert
 (= z_0_4_0 true))
(assert
 (= z_0_5_0 true))
(assert
 (= z_0_6_0 true))
(assert
 (= z_0_7_0 true))
(assert
 (= z_0_8_0 true))
(assert
 (= z_0_9_0 true))
(assert
 (= z_0_10_0 false))
(assert
 (= z_0_11_0 false))
(assert
 (= z_0_12_0 false))
(assert
 (= z_0_13_0 false))
(assert
 (= z_0_14_0 false))
(assert
 (= z_0_15_0 false))
(assert
 (= z_0_16_0 false))
(assert
 (= z_0_17_0 false))
(assert
 (= z_0_18_0 false))
(assert
 (= z_0_19_0 false))
(assert
 (let (($x1211 (= z_1_0_0 z_1_5_4)))
 (and $x1211)))
(assert
 (let (($x1213 (= z_1_0_1 z_1_5_5)))
 (and $x1213)))
(assert
 (let (($x1215 (= z_1_0_0 z_1_9_4)))
 (and $x1215)))
(assert
 (let (($x1217 (= z_1_0_1 z_1_9_3)))
 (and $x1217)))
(assert
 (let (($x1219 (= z_1_2_2 z_1_6_0)))
 (and $x1219)))
(assert
 (let (($x1221 (= z_1_2_3 z_1_6_1)))
 (and $x1221)))
(assert
 (let (($x1223 (= z_1_2_4 z_1_6_2)))
 (and $x1223)))
(assert
 (let (($x1225 (= z_1_2_5 z_1_6_3)))
 (and $x1225)))
(assert
 (let (($x1227 (= z_1_2_6 z_1_6_4)))
 (and $x1227)))
(assert
 (let (($x1229 (= z_1_3_2 z_1_10_0)))
 (and $x1229)))
(assert
 (let (($x1231 (= z_1_3_2 z_1_11_0)))
 (and $x1231)))
(assert
 (let (($x1233 (= z_1_3_2 z_1_12_0)))
 (and $x1233)))
(assert
 (let (($x1235 (= z_1_3_2 z_1_13_0)))
 (and $x1235)))
(assert
 (let (($x1237 (= z_1_3_2 z_1_14_0)))
 (and $x1237)))
(assert
 (let (($x1239 (= z_1_3_2 z_1_15_0)))
 (and $x1239)))
(assert
 (let (($x1241 (= z_1_3_2 z_1_16_0)))
 (and $x1241)))
(assert
 (let (($x1243 (= z_1_3_2 z_1_17_0)))
 (and $x1243)))
(assert
 (let (($x1245 (= z_1_3_2 z_1_18_0)))
 (and $x1245)))
(assert
 (let (($x1247 (= z_1_3_2 z_1_19_0)))
 (and $x1247)))
(assert
 (let (($x1249 (= z_1_4_0 z_1_7_0)))
 (and $x1249)))
(assert
 (let (($x1251 (= z_1_4_1 z_1_7_1)))
 (and $x1251)))
(assert
 (let (($x1253 (= z_1_4_2 z_1_7_2)))
 (and $x1253)))
(assert
 (let (($x1255 (= z_1_4_3 z_1_7_3)))
 (and $x1255)))
(assert
 (let (($x1257 (= z_1_4_4 z_1_7_4)))
 (and $x1257)))
(assert
 (let (($x1259 (= z_1_4_2 z_1_8_5)))
 (and $x1259)))
(assert
 (let (($x1261 (= z_1_4_3 z_1_8_6)))
 (and $x1261)))
(assert
 (let (($x1263 (= z_1_4_4 z_1_8_4)))
 (and $x1263)))
(assert
 (let (($x1265 (= z_1_5_4 z_1_9_4)))
 (and $x1265)))
(assert
 (let (($x1267 (= z_1_5_5 z_1_9_3)))
 (and $x1267)))
(assert
 (let (($x1269 (= z_1_7_2 z_1_8_5)))
 (and $x1269)))
(assert
 (let (($x1271 (= z_1_7_3 z_1_8_6)))
 (and $x1271)))
(assert
 (let (($x1273 (= z_1_7_4 z_1_8_4)))
 (and $x1273)))
(assert
 (let (($x1275 (= z_1_10_0 z_1_11_0)))
 (and $x1275)))
(assert
 (let (($x1277 (= z_1_10_0 z_1_12_0)))
 (and $x1277)))
(assert
 (let (($x1279 (= z_1_10_0 z_1_13_0)))
 (and $x1279)))
(assert
 (let (($x1281 (= z_1_10_0 z_1_14_0)))
 (and $x1281)))
(assert
 (let (($x1283 (= z_1_10_0 z_1_15_0)))
 (and $x1283)))
(assert
 (let (($x1285 (= z_1_10_0 z_1_16_0)))
 (and $x1285)))
(assert
 (let (($x1287 (= z_1_10_0 z_1_17_0)))
 (and $x1287)))
(assert
 (let (($x1289 (= z_1_10_0 z_1_18_0)))
 (and $x1289)))
(assert
 (let (($x1291 (= z_1_10_0 z_1_19_0)))
 (and $x1291)))
(assert
 (let (($x1293 (= z_1_11_0 z_1_12_0)))
 (and $x1293)))
(assert
 (let (($x1295 (= z_1_11_0 z_1_13_0)))
 (and $x1295)))
(assert
 (let (($x1297 (= z_1_11_0 z_1_14_0)))
 (and $x1297)))
(assert
 (let (($x1299 (= z_1_11_0 z_1_15_0)))
 (and $x1299)))
(assert
 (let (($x1301 (= z_1_11_0 z_1_16_0)))
 (and $x1301)))
(assert
 (let (($x1303 (= z_1_11_0 z_1_17_0)))
 (and $x1303)))
(assert
 (let (($x1305 (= z_1_11_0 z_1_18_0)))
 (and $x1305)))
(assert
 (let (($x1307 (= z_1_11_0 z_1_19_0)))
 (and $x1307)))
(assert
 (let (($x1309 (= z_1_12_0 z_1_13_0)))
 (and $x1309)))
(assert
 (let (($x1311 (= z_1_12_0 z_1_14_0)))
 (and $x1311)))
(assert
 (let (($x1313 (= z_1_12_0 z_1_15_0)))
 (and $x1313)))
(assert
 (let (($x1315 (= z_1_12_0 z_1_16_0)))
 (and $x1315)))
(assert
 (let (($x1317 (= z_1_12_0 z_1_17_0)))
 (and $x1317)))
(assert
 (let (($x1319 (= z_1_12_0 z_1_18_0)))
 (and $x1319)))
(assert
 (let (($x1321 (= z_1_12_0 z_1_19_0)))
 (and $x1321)))
(assert
 (let (($x1323 (= z_1_13_0 z_1_14_0)))
 (and $x1323)))
(assert
 (let (($x1325 (= z_1_13_0 z_1_15_0)))
 (and $x1325)))
(assert
 (let (($x1327 (= z_1_13_0 z_1_16_0)))
 (and $x1327)))
(assert
 (let (($x1329 (= z_1_13_0 z_1_17_0)))
 (and $x1329)))
(assert
 (let (($x1331 (= z_1_13_0 z_1_18_0)))
 (and $x1331)))
(assert
 (let (($x1333 (= z_1_13_0 z_1_19_0)))
 (and $x1333)))
(assert
 (let (($x1335 (= z_1_14_0 z_1_15_0)))
 (and $x1335)))
(assert
 (let (($x1337 (= z_1_14_0 z_1_16_0)))
 (and $x1337)))
(assert
 (let (($x1339 (= z_1_14_0 z_1_17_0)))
 (and $x1339)))
(assert
 (let (($x1341 (= z_1_14_0 z_1_18_0)))
 (and $x1341)))
(assert
 (let (($x1343 (= z_1_14_0 z_1_19_0)))
 (and $x1343)))
(assert
 (let (($x1345 (= z_1_15_0 z_1_16_0)))
 (and $x1345)))
(assert
 (let (($x1347 (= z_1_15_0 z_1_17_0)))
 (and $x1347)))
(assert
 (let (($x1349 (= z_1_15_0 z_1_18_0)))
 (and $x1349)))
(assert
 (let (($x1351 (= z_1_15_0 z_1_19_0)))
 (and $x1351)))
(assert
 (let (($x1353 (= z_1_16_0 z_1_17_0)))
 (and $x1353)))
(assert
 (let (($x1355 (= z_1_16_0 z_1_18_0)))
 (and $x1355)))
(assert
 (let (($x1357 (= z_1_16_0 z_1_19_0)))
 (and $x1357)))
(assert
 (let (($x1359 (= z_1_17_0 z_1_18_0)))
 (and $x1359)))
(assert
 (let (($x1361 (= z_1_17_0 z_1_19_0)))
 (and $x1361)))
(assert
 (let (($x1363 (= z_1_18_0 z_1_19_0)))
 (and $x1363)))
(check-sat)

